0 3802
6 3760
7 3703
11 3681
12 3660
14 3571
15 3566
23 3551
28 3544
31 3536
47 3534
48 3485
51 3483
55 3480
56 3441
57 3419
68 3398
77 3391
79 3387
84 3363
95 3351
117 3346
128 3318
143 3309
162 3308
200 3303
205 3285
285 3282
313 3278
376 3277
423 3255
457 3251
485 3235
522 3219
590 3205
616 3192
651 3189
723 3187
777 3183
955 3181
1079 3178
1092 3160
1111 3148
1230 3147
1307 3141
1607 3131
1626 3129
2020 3127
2030 3125
2248 3124
3313 3123
3345 3120
3375 3119
3506 3114
3933 3112
3976 3110
3983 3108
4113 3104
4138 3098
5643 3092
6506 3089
6697 3086
7388 3085
7630 3080
7684 3079
7777 3077
8172 3076
8364 3070
8416 3069
9250 3058
10077 3056
11689 3055
104343 3049
104485 3048
226388 3047
226446 3046
226489 3044
1081411 3039
